; benchmark generated from python API
(set-info :status unknown)
(declare-fun v16 () Bool)
(declare-fun v26 () Bool)
(declare-fun v14 () Bool)
(declare-fun v30 () Bool)
(declare-fun v28 () Bool)
(declare-fun v24 () Bool)
(declare-fun v22 () Bool)
(declare-fun v20 () Bool)
(declare-fun v18 () Bool)
(declare-fun v12 () Bool)
(declare-fun i4 () Bool)
(declare-fun i8 () Bool)
(declare-fun i10 () Bool)
(declare-fun i6 () Bool)
(declare-fun i2 () Bool)
(assert
 (= v16 true))
(assert
 (= v26 true))
(assert
 (= v14 true))
(assert
 (let (($x745 (and v16 v26 v14)))
 (let (($x76 (not v30)))
 (let (($x70 (not v28)))
 (let (($x71 (not v26)))
 (let (($x65 (not v24)))
 (let (($x66 (not v22)))
 (let (($x504 (not v20)))
 (let (($x449 (not v18)))
 (let (($x492 (not v16)))
 (let (($x380 (not v14)))
 (let (($x639 (not v12)))
 (let (($x10 (and $x639 $x380 $x492 $x449 $x504 $x66 $x65 $x71 $x70 $x76)))
 (let (($x763 (not $x745)))
 (let (($x568 (not (and v18 $x76))))
 (let (($x274 (not (and v14 $x76))))
 (let (($x323 (not (and v20 v26))))
 (let (($x55 (not (and v18 v14))))
 (let (($x560 (not (and v18 v22))))
 (let (($x305 (not (and v26 v22))))
 (let (($x601 (not (and v26 $x76))))
 (let (($x112 (not (and v14 v22))))
 (let (($x242 (not (and v18 v26))))
 (let (($x569 (not (and v20 $x76))))
 (let (($x329 (not (and v22 $x76))))
 (let (($x582 (not (and v24 $x76))))
 (let (($x485 (not (and v26 v24))))
 (let (($x487 (not i10)))
 (let (($x499 (not (and v22 v20))))
 (let (($x494 (not (and v14 v12))))
 (let (($x493 (not (and v18 v16))))
 (let (($x486 (not (and $x76 v28))))
 (let (($x85 (not (and (not (and $x486 $x493 $x494 $x499 $x485 $x487)) $x485))))
 (let (($x314 (not (and $x486 (not (and $x493 $x494 $x499 $x485))))))
 (let (($x115 (not (and $x314 i10 $x85 i8))))
 (let (($x155 (not (and (not (and $x486 $x493 $x494 $x499 $x485 $x487 (not i8))) $x499))))
 (let (($x111 (not (and $x155 i6 $x314 i10))))
 (let (($x114 (not (and $x155 i6 $x85 i8))))
 (let (($x221 (and (not (and $x486 $x493 $x494 $x499 $x485 $x487 (not i8) (not i6))) $x493)))
 (let (($x222 (not $x221)))
 (let (($x32 (not (and $x222 i4 $x314 i10))))
 (let (($x31 (not (and $x222 i4 $x85 i8))))
 (let (($x207 (not (and $x222 i4 $x155 i6))))
 (let (($x467 (not i4)))
 (let (($x477 (not i6)))
 (let (($x105 (not i8)))
 (let (($x30 (not (and (not (and $x486 $x493 $x494 $x499 $x485 $x487 $x105 $x477 $x467)) $x494))))
 (let (($x209 (not (and $x30 i2 $x314 i10))))
 (let (($x194 (not (and $x30 i2 $x85 i8))))
 (let (($x182 (not (and $x30 i2 $x155 i6))))
 (let (($x311 (not (and $x30 i2 $x222 i4))))
 (let (($x136 (and $x311 $x182 $x194 $x209 $x207 $x31 $x32 $x114 $x111 $x115)))
 (let (($x766 (and $x136 $x380 $x492 $x582 $x329 $x639 $x569 $x242 $x112 $x601 $x305 $x560 $x55 $x323 $x274 $x568)))
 (let (($x768 (not (and $x766 $x763 (and (and (not (and $x449 $x492)) i4) $x76 v18)))))
 (not (and $x768 (not (and (and $x10) $x745))))))))))))))))))))))))))))))))))))))))))))))))))))))))))
(check-sat)
